470,115
782,93
844,86
639,140
385,110
681,-14
620,21
705,389
681,646
751,850
822,600
685,377
718,292
617,207
609,354
536,301
411,406
501,406
609,354
994,305
1045,142
994,305
822,600
705,389
888,438
945,42
681,-134
639,140
597,490
491,596
411,406
339,295
227,175
491,596
